####################################################################### 
# 
# This file contains crystal structure data downloaded from the 
# Cambridge Structural Database (CSD) hosted by the Cambridge 
# Crystallographic Data Centre (CCDC).
# 
# Full information about CCDC data access policies and citation 
# guidelines are available at http://www.ccdc.cam.ac.uk/access/V1 
# 
# Audit and citation data items may have been added by the CCDC. 
# Please retain this information to preserve the provenance of 
# this file and to allow appropriate attribution of the data. 
# 
#######################################################################

data_shelx
_audit_block_doi                 10.5517/ccdc.csd.cc1lks20
_database_code_depnum_ccdc_archive 'CCDC 1476842'
loop_
_citation_id
_citation_doi
_citation_year
1 10.1002/anie.201604297 2016
_audit_update_record             
;
2016-04-27 deposited with the CCDC.	2020-05-07 downloaded from the CCDC.
;

_audit_creation_method           SHELXL-2014/7
_shelx_SHELXL_version_number     2014/7
_chemical_name_systematic        ?
_chemical_name_common            ?
_chemical_melting_point          ?
_chemical_formula_moiety         
'C52 H40 Cl N5 O4 Zn, 0.751(C5 H12), 1.249(C H2 Cl2)'
_chemical_formula_sum            'C57 H51.51 Cl3.50 N5 O4 Zn'
_chemical_formula_weight         1059.98

loop_
_atom_type_symbol
_atom_type_description
_atom_type_scat_dispersion_real
_atom_type_scat_dispersion_imag
_atom_type_scat_source
C C 0.0181 0.0091 'International Tables Vol C Tables 4.2.6.8 and 6.1.1.4'
H H 0.0000 0.0000 'International Tables Vol C Tables 4.2.6.8 and 6.1.1.4'
N N 0.0311 0.0180 'International Tables Vol C Tables 4.2.6.8 and 6.1.1.4'
O O 0.0492 0.0322 'International Tables Vol C Tables 4.2.6.8 and 6.1.1.4'
Cl Cl 0.3639 0.7018 'International Tables Vol C Tables 4.2.6.8 and 6.1.1.4'
Zn Zn -1.5491 0.6778 'International Tables Vol C Tables 4.2.6.8 and 6.1.1.4'

_space_group_crystal_system      orthorhombic
_space_group_IT_number           19
_space_group_name_H-M_alt        'P 21 21 21'
_space_group_name_Hall           'P 2ac 2ab'

_shelx_space_group_comment       
;
The symmetry employed for this shelxl refinement is uniquely defined
by the following loop, which should always be used as a source of
symmetry information in preference to the above space-group names.
They are only intended as comments.
;

loop_
_space_group_symop_operation_xyz
'x, y, z'
'-x+1/2, -y, z+1/2'
'x+1/2, -y+1/2, -z'
'-x, y+1/2, -z+1/2'

_cell_length_a                   11.26360(10)
_cell_length_b                   19.28510(10)
_cell_length_c                   23.62160(10)
_cell_angle_alpha                90
_cell_angle_beta                 90
_cell_angle_gamma                90
_cell_volume                     5131.08(6)
_cell_formula_units_Z            4
_cell_measurement_temperature    100(2)
_cell_measurement_reflns_used    102338
_cell_measurement_theta_min      4.3340
_cell_measurement_theta_max      75.5330

_exptl_crystal_description       needle
_exptl_crystal_colour            black
_exptl_crystal_density_meas      ?
_exptl_crystal_density_method    ?
_exptl_crystal_density_diffrn    1.372
_exptl_crystal_F_000             2193
_exptl_transmission_factor_min   ?
_exptl_transmission_factor_max   ?
_exptl_crystal_size_max          0.18
_exptl_crystal_size_mid          0.08
_exptl_crystal_size_min          0.06
_exptl_absorpt_coefficient_mu    2.756
_shelx_estimated_absorpt_T_min   ?
_shelx_estimated_absorpt_T_max   ?
_exptl_absorpt_correction_type   multi-scan
_exptl_absorpt_correction_T_min  0.58750
_exptl_absorpt_correction_T_max  1.00000
_exptl_absorpt_process_details   
;
CrysAlisPro, Agilent Technologies,
Version 1.171.36.28 (release 01-02-2013 CrysAlis171 .NET)
(compiled Feb  1 2013,16:14:44)
Empirical absorption correction using spherical harmonics,
 implemented in SCALE3 ABSPACK scaling algorithm.
;
_exptl_absorpt_special_details   ?
_diffrn_ambient_temperature      100(2)
_diffrn_radiation_wavelength     1.54184
_diffrn_radiation_type           CuK\a
_diffrn_source                   'Nova (Cu) X-ray Source'
_diffrn_measurement_device_type  'Xcalibur, Atlas, Nova'
_diffrn_measurement_method       '\w scans'
_diffrn_detector_area_resol_mean 10.3543
_diffrn_reflns_number            131199
_diffrn_reflns_av_unetI/netI     0.0113
_diffrn_reflns_av_R_equivalents  0.0335
_diffrn_reflns_limit_h_min       -12
_diffrn_reflns_limit_h_max       14
_diffrn_reflns_limit_k_min       -24
_diffrn_reflns_limit_k_max       24
_diffrn_reflns_limit_l_min       -29
_diffrn_reflns_limit_l_max       29
_diffrn_reflns_theta_min         3.742
_diffrn_reflns_theta_max         75.750
_diffrn_reflns_theta_full        67.684
_diffrn_measured_fraction_theta_max 0.998
_diffrn_measured_fraction_theta_full 1.000
_diffrn_reflns_Laue_measured_fraction_max 0.998
_diffrn_reflns_Laue_measured_fraction_full 1.000
_diffrn_reflns_point_group_measured_fraction_max 0.997
_diffrn_reflns_point_group_measured_fraction_full 1.000
_reflns_number_total             10632
_reflns_number_gt                10518
_reflns_threshold_expression     'I > 2\s(I)'
_reflns_Friedel_coverage         0.805
_reflns_Friedel_fraction_max     0.995
_reflns_Friedel_fraction_full    1.000

_reflns_special_details          
;
 Reflections were merged by SHELXL according to the crystal
 class for the calculation of statistics and refinement.
 
 _reflns_Friedel_fraction is defined as the number of unique
 Friedel pairs measured divided by the number that would be
 possible theoretically, ignoring centric projections and
 systematic absences.
;

_computing_data_collection       
;
CrysAlisPro, Agilent Technologies,
Version 1.171.36.28 (release 01-02-2013 CrysAlis171 .NET)
(compiled Feb  1 2013,16:14:44)
;
_computing_cell_refinement       
;
CrysAlisPro, Agilent Technologies,
Version 1.171.36.28 (release 01-02-2013 CrysAlis171 .NET)
(compiled Feb  1 2013,16:14:44)
;
_computing_data_reduction        
;
CrysAlisPro, Agilent Technologies,
Version 1.171.36.28 (release 01-02-2013 CrysAlis171 .NET)
(compiled Feb  1 2013,16:14:44)
;
_computing_structure_solution    
;
 SIR-92 (A. Altomare, G. Cascarano, C. Giacovazzo and A. Guagliardi,
 J. Appl. Crystallogr. 1993, 26, 343-350.)
;
_computing_structure_refinement  
;
 SHELXL-2014/7 (G. M. Sheldrick, Acta Cryst. (2008). A64, 122-122)'
;
_computing_molecular_graphics    
;
 ORTEP3 for Windows (L. J. Farrugia, J. Appl. Crystallogr. 1997, 30, 565.)
;
_computing_publication_material  
;
 WinGX v1.80.05 (L. J. Farrugia, J. Appl. Cryst., 1999, 32, 837-838.)
;

_refine_special_details          
;
 The Solvent molecules n-pentane and dichlormethane were refined with restrains
 at the bondlengths and angles. Furthermore the carbon atom C201 have 
 also a isor restrain.
 The solvent molecule n-pentane have an occupancy of 0.75(1)
 and the corresponding dichlormethane have an occupancy of 0.25(1).
 Residual electrondensity (Q1: 1.32, Q2: 1.11) are located at the disordered
 solvent molecules.
 The proton of the external pyrrole are refind freely.
 All other H atoms were refined using a riding model, with a common U restrained
 to be 1.2 (1.5 for methyl groups) times the equivalent isotropic displacement
 parameter of the parent atom. Methyl groups were treated as a rigid bodies and
 allowed to rotate about the E-CH3 bond.
 Refinement of F^2^ against ALL reflections.  The weighted R-factor wR and
 goodness of fit S are based on F^2^, conventional R-factors R are based
 on F, with F set to zero for negative F^2^. The threshold expression of
 F^2^ > 2\s(F^2^) is used only for calculating R-factors(gt) etc. and is
 not relevant to the choice of reflections for refinement.  R-factors based
 on F^2^ are statistically about twice as large as those based on F, and R-
 factors based on ALL data will be even larger.
;
_refine_ls_structure_factor_coef Fsqd
_refine_ls_matrix_type           full
_refine_ls_weighting_scheme      calc
_refine_ls_weighting_details     
'w=1/[\s^2^(Fo^2^)+(0.1288P)^2^+4.2779P] where P=(Fo^2^+2Fc^2^)/3'
_atom_sites_solution_primary     ?
_atom_sites_solution_secondary   ?
_atom_sites_solution_hydrogens   mixed
_refine_ls_hydrogen_treatment    mixed
_refine_ls_extinction_method     none
_refine_ls_extinction_coef       .
_refine_ls_abs_structure_details 
;
 Flack x determined using 4629 quotients [(I+)-(I-)]/[(I+)+(I-)]
 (Parsons, Flack and Wagner, Acta Cryst. B69 (2013) 249-259).
;
_refine_ls_abs_structure_Flack   0.004(3)
_chemical_absolute_configuration ?
_refine_ls_number_reflns         10632
_refine_ls_number_parameters     676
_refine_ls_number_restraints     19
_refine_ls_R_factor_all          0.0597
_refine_ls_R_factor_gt           0.0593
_refine_ls_wR_factor_ref         0.1773
_refine_ls_wR_factor_gt          0.1765
_refine_ls_goodness_of_fit_ref   1.113
_refine_ls_restrained_S_all      1.113
_refine_ls_shift/su_max          0.000
_refine_ls_shift/su_mean         0.000

loop_
_atom_site_label
_atom_site_type_symbol
_atom_site_fract_x
_atom_site_fract_y
_atom_site_fract_z
_atom_site_U_iso_or_equiv
_atom_site_adp_type
_atom_site_occupancy
_atom_site_site_symmetry_order
_atom_site_calc_flag
_atom_site_refinement_flags_posn
_atom_site_refinement_flags_adp
_atom_site_refinement_flags_occupancy
_atom_site_disorder_assembly
_atom_site_disorder_group
H5N H -0.058(7) 0.165(4) 0.126(3) 0.029(16) Uiso 1 1 d . . . . .
Zn01 Zn 0.16845(5) 0.09584(3) 0.04752(2) 0.01977(17) Uani 1 1 d . . . . .
Cl1 Cl 0.02167(10) 0.04230(6) 0.10105(5) 0.0286(3) Uani 1 1 d . . . . .
N1 N 0.2020(3) 0.18351(19) 0.10000(16) 0.0197(7) Uani 1 1 d . . . . .
N2 N 0.3282(4) 0.05580(19) 0.07710(16) 0.0215(7) Uani 1 1 d . . . . .
N3 N 0.1923(3) 0.0372(2) -0.02669(16) 0.0216(7) Uani 1 1 d . . . . .
N4 N 0.0604(3) 0.16304(19) -0.00178(16) 0.0198(7) Uani 1 1 d . . . . .
N5 N -0.1143(4) 0.1933(2) 0.12258(19) 0.0263(8) Uani 1 1 d . . . . .
O1 O 0.6844(4) 0.1819(2) 0.33959(15) 0.0322(8) Uani 1 1 d . . . . .
O2 O 0.5095(5) -0.3197(2) 0.0001(3) 0.0544(13) Uani 1 1 d . . . . .
O3 O -0.1795(5) 0.0755(3) -0.30351(18) 0.0527(13) Uani 1 1 d . . . . .
O4 O 0.2097(4) 0.5339(2) 0.02385(18) 0.0366(9) Uani 1 1 d . . . . .
C1 C 0.1261(4) 0.2352(2) 0.10829(19) 0.0200(8) Uani 1 1 d . . . . .
C2 C 0.1437(4) 0.2676(3) 0.1625(2) 0.0249(9) Uani 1 1 d . . . . .
H2 H 0.0994 0.3051 0.1777 0.030 Uiso 1 1 calc R U . . .
C3 C 0.2352(4) 0.2346(2) 0.1876(2) 0.0241(9) Uani 1 1 d . . . . .
H3 H 0.2675 0.2444 0.2239 0.029 Uiso 1 1 calc R U . . .
C4 C 0.2749(4) 0.1810(2) 0.14846(19) 0.0207(8) Uani 1 1 d . . . . .
C5 C 0.3692(4) 0.1368(2) 0.15614(18) 0.0203(8) Uani 1 1 d . . . . .
C6 C 0.3993(4) 0.0802(2) 0.1193(2) 0.0225(9) Uani 1 1 d . . . . .
C7 C 0.5042(4) 0.0380(2) 0.1242(2) 0.0261(9) Uani 1 1 d . . . . .
H7 H 0.5690 0.0451 0.1493 0.031 Uiso 1 1 calc R U . . .
C8 C 0.4917(4) -0.0142(2) 0.0854(2) 0.0258(9) Uani 1 1 d . . . . .
H8 H 0.5455 -0.0514 0.0790 0.031 Uiso 1 1 calc R U . . .
C9 C 0.3835(4) -0.0024(2) 0.05665(19) 0.0223(9) Uani 1 1 d . . . . .
C10 C 0.3399(4) -0.0449(2) 0.0117(2) 0.0233(9) Uani 1 1 d . . . . .
C11 C 0.2509(4) -0.0259(2) -0.0266(2) 0.0240(9) Uani 1 1 d . . . . .
C12 C 0.2100(5) -0.0670(3) -0.0726(2) 0.0329(11) Uani 1 1 d . . . . .
H12 H 0.2344 -0.1129 -0.0814 0.039 Uiso 1 1 calc R U . . .
C13 C 0.1293(5) -0.0284(3) -0.1018(2) 0.0305(10) Uani 1 1 d . . . . .
H13 H 0.0884 -0.0412 -0.1354 0.037 Uiso 1 1 calc R U . . .
C14 C 0.1190(4) 0.0356(2) -0.0713(2) 0.0231(9) Uani 1 1 d . . . . .
C15 C 0.0365(4) 0.0900(2) -0.08711(19) 0.0217(8) Uani 1 1 d . . . . .
C16 C 0.0106(4) 0.1474(2) -0.05505(18) 0.0203(8) Uani 1 1 d . . . . .
C17 C -0.0670(4) 0.2037(2) -0.07208(19) 0.0218(8) Uani 1 1 d . . . . .
H17 H -0.1119 0.2065 -0.1061 0.026 Uiso 1 1 calc R U . . .
C18 C -0.0630(4) 0.2512(2) -0.0304(2) 0.0229(9) Uani 1 1 d . . . . .
H18 H -0.1042 0.2941 -0.0291 0.027 Uiso 1 1 calc R U . . .
C19 C 0.0172(4) 0.2234(2) 0.01244(18) 0.0201(8) Uani 1 1 d . . . . .
C20 C 0.0340(4) 0.2618(2) 0.06759(19) 0.0203(8) Uani 1 1 d . . . . .
C21 C 0.4483(4) 0.1486(2) 0.20593(19) 0.0212(9) Uani 1 1 d . . . . .
C22 C 0.4957(4) 0.2144(2) 0.2184(2) 0.0233(9) Uani 1 1 d . . . . .
H22 H 0.4741 0.2530 0.1956 0.028 Uiso 1 1 calc R U . . .
C23 C 0.5726(4) 0.2238(2) 0.2629(2) 0.0249(9) Uani 1 1 d . . . . .
H23 H 0.6036 0.2687 0.2705 0.030 Uiso 1 1 calc R U . . .
C24 C 0.6057(4) 0.1677(3) 0.2971(2) 0.0252(9) Uani 1 1 d . . . . .
C25 C 0.5592(4) 0.1023(3) 0.2857(2) 0.0257(9) Uani 1 1 d . . . . .
H25 H 0.5812 0.0638 0.3085 0.031 Uiso 1 1 calc R U . . .
C26 C 0.4810(4) 0.0938(3) 0.2414(2) 0.0249(9) Uani 1 1 d . . . . .
H26 H 0.4482 0.0491 0.2347 0.030 Uiso 1 1 calc R U . . .
C27 C 0.3927(4) -0.1148(2) 0.0070(2) 0.0257(9) Uani 1 1 d . . . . .
C28 C 0.3855(6) -0.1593(3) 0.0530(3) 0.0369(12) Uani 1 1 d . . . . .
H28 H 0.3547 -0.1425 0.0879 0.044 Uiso 1 1 calc R U . . .
C29 C 0.4221(7) -0.2280(3) 0.0494(3) 0.0456(15) Uani 1 1 d . . . . .
H29 H 0.4118 -0.2586 0.0805 0.055 Uiso 1 1 calc R U . . .
C30 C 0.4745(6) -0.2514(3) -0.0009(3) 0.0386(12) Uani 1 1 d . . . . .
C31 C 0.4873(5) -0.2070(3) -0.0465(3) 0.0336(11) Uani 1 1 d . . . . .
H31 H 0.5247 -0.2227 -0.0802 0.040 Uiso 1 1 calc R U . . .
C32 C 0.4456(5) -0.1398(3) -0.0429(2) 0.0287(10) Uani 1 1 d . . . . .
H32 H 0.4527 -0.1099 -0.0747 0.034 Uiso 1 1 calc R U . . .
C33 C -0.0226(4) 0.0840(2) -0.14363(19) 0.0226(9) Uani 1 1 d . . . . .
C34 C -0.1454(5) 0.0761(3) -0.1478(2) 0.0285(10) Uani 1 1 d . . . . .
H34 H -0.1916 0.0734 -0.1142 0.034 Uiso 1 1 calc R U . . .
C35 C -0.2016(5) 0.0721(3) -0.2001(2) 0.0351(12) Uani 1 1 d . . . . .
H35 H -0.2852 0.0659 -0.2021 0.042 Uiso 1 1 calc R U . . .
C36 C -0.1352(5) 0.0774(3) -0.2496(2) 0.0336(12) Uani 1 1 d . . . . .
C37 C -0.0132(5) 0.0867(3) -0.2458(2) 0.0301(10) Uani 1 1 d . . . . .
H37 H 0.0325 0.0913 -0.2794 0.036 Uiso 1 1 calc R U . . .
C38 C 0.0426(4) 0.0892(2) -0.1938(2) 0.0258(9) Uani 1 1 d . . . . .
H38 H 0.1264 0.0945 -0.1920 0.031 Uiso 1 1 calc R U . . .
C39 C 0.0730(4) 0.3365(2) 0.05361(19) 0.0212(8) Uani 1 1 d . . . . .
C40 C 0.1574(4) 0.3459(2) 0.0114(2) 0.0237(9) Uani 1 1 d . . . . .
H40 H 0.1833 0.3069 -0.0098 0.028 Uiso 1 1 calc R U . . .
C41 C 0.2054(4) 0.4113(3) -0.0006(2) 0.0274(9) Uani 1 1 d . . . . .
H41 H 0.2630 0.4169 -0.0297 0.033 Uiso 1 1 calc R U . . .
C42 C 0.1667(5) 0.4677(3) 0.0310(2) 0.0274(9) Uani 1 1 d . . . . .
C43 C 0.0806(5) 0.4594(3) 0.0723(2) 0.0269(9) Uani 1 1 d . . . . .
H43 H 0.0530 0.4985 0.0928 0.032 Uiso 1 1 calc R U . . .
C44 C 0.0350(4) 0.3948(3) 0.0839(2) 0.0258(9) Uani 1 1 d . . . . .
H44 H -0.0230 0.3896 0.1128 0.031 Uiso 1 1 calc R U . . .
C45 C -0.0874(4) 0.2551(2) 0.0960(2) 0.0222(9) Uani 1 1 d . . . . .
C46 C -0.1868(4) 0.2964(3) 0.0972(2) 0.0267(9) Uani 1 1 d . . . . .
H46 H -0.1938 0.3417 0.0819 0.032 Uiso 1 1 calc R U . . .
C47 C -0.2769(5) 0.2589(3) 0.1256(2) 0.0296(10) Uani 1 1 d . . . . .
H47 H -0.3553 0.2746 0.1329 0.036 Uiso 1 1 calc R U . . .
C48 C -0.2300(5) 0.1955(3) 0.1407(2) 0.0304(10) Uani 1 1 d . . . . .
H48 H -0.2708 0.1596 0.1602 0.036 Uiso 1 1 calc R U . . .
C49 C 0.7176(6) 0.1259(3) 0.3759(2) 0.0376(12) Uani 1 1 d . . . . .
H49A H 0.6478 0.1099 0.3969 0.056 Uiso 1 1 calc R U . . .
H49B H 0.7785 0.1417 0.4025 0.056 Uiso 1 1 calc R U . . .
H49C H 0.7492 0.0877 0.3530 0.056 Uiso 1 1 calc R U . . .
C50 C 0.5556(7) -0.3480(3) -0.0512(5) 0.060(2) Uani 1 1 d . . . . .
H50A H 0.4925 -0.3497 -0.0797 0.090 Uiso 1 1 calc R U . . .
H50B H 0.5853 -0.3949 -0.0441 0.090 Uiso 1 1 calc R U . . .
H50C H 0.6206 -0.3187 -0.0649 0.090 Uiso 1 1 calc R U . . .
C51 C -0.3034(7) 0.0614(7) -0.3093(4) 0.089(4) Uani 1 1 d . . . . .
H51A H -0.3267 0.0255 -0.2821 0.133 Uiso 1 1 calc R U . . .
H51B H -0.3197 0.0452 -0.3479 0.133 Uiso 1 1 calc R U . . .
H51C H -0.3487 0.1038 -0.3020 0.133 Uiso 1 1 calc R U . . .
C52 C 0.3137(8) 0.5403(4) -0.0100(3) 0.0552(19) Uani 1 1 d . . . . .
H52A H 0.3668 0.5011 -0.0025 0.083 Uiso 1 1 calc R U . . .
H52B H 0.3543 0.5838 -0.0009 0.083 Uiso 1 1 calc R U . . .
H52C H 0.2914 0.5403 -0.0502 0.083 Uiso 1 1 calc R U . . .
C101 C 0.1588(3) 0.7320(6) 0.8771(4) 0.093(3) Uani 1 1 d D . . . .
H10A H 0.1091 0.7029 0.8520 0.112 Uiso 1 1 calc R U . . .
H10B H 0.1085 0.7698 0.8923 0.112 Uiso 1 1 calc R U . . .
Cl2 Cl 0.2128(2) 0.68100(15) 0.93371(11) 0.0819(7) Uani 1 1 d D . . . .
Cl3 Cl 0.2768(3) 0.76814(17) 0.83758(10) 0.0970(9) Uani 1 1 d D . . . .
C201 C 0.866(2) 0.5470(6) 0.2090(7) 0.157(13) Uani 0.751(8) 1 d D . P A 1
H20A H 0.8318 0.5930 0.2161 0.235 Uiso 0.751(8) 1 calc R U P A 1
H20B H 0.9524 0.5503 0.2078 0.235 Uiso 0.751(8) 1 calc R U P A 1
H20C H 0.8362 0.5294 0.1727 0.235 Uiso 0.751(8) 1 calc R U P A 1
C204 C 0.8363(10) 0.3742(4) 0.2889(4) 0.089(5) Uani 0.751(8) 1 d D . P A 1
H20D H 0.8597 0.3896 0.3273 0.107 Uiso 0.751(8) 1 calc R U P A 1
H20E H 0.7486 0.3717 0.2873 0.107 Uiso 0.751(8) 1 calc R U P A 1
C205 C 0.8904(11) 0.3025(4) 0.2762(6) 0.083(4) Uani 0.751(8) 1 d D . P A 1
H20F H 0.8620 0.2689 0.3042 0.124 Uiso 0.751(8) 1 calc R U P A 1
H20G H 0.8665 0.2876 0.2382 0.124 Uiso 0.751(8) 1 calc R U P A 1
H20H H 0.9772 0.3055 0.2781 0.124 Uiso 0.751(8) 1 calc R U P A 1
C202 C 0.8283(15) 0.4972(4) 0.2568(6) 0.105(6) Uani 0.751(8) 1 d D . P A 1
H20I H 0.7407 0.4937 0.2584 0.126 Uiso 0.751(8) 1 calc R U P A 1
H20J H 0.8573 0.5146 0.2937 0.126 Uiso 0.751(8) 1 calc R U P A 1
C203 C 0.8828(11) 0.4256(5) 0.2442(5) 0.099(6) Uani 0.751(8) 1 d D . P A 1
H20K H 0.9705 0.4282 0.2459 0.118 Uiso 0.751(8) 1 calc R U P A 1
H20L H 0.8597 0.4100 0.2058 0.118 Uiso 0.751(8) 1 calc R U P A 1
C301 C 0.8952(16) 0.5710(8) 0.2459(9) 0.052(7) Uani 0.249(8) 1 d D U P A 2
H30A H 0.8190 0.5955 0.2399 0.062 Uiso 0.249(8) 1 calc R U P A 2
H30B H 0.8991 0.5567 0.2861 0.062 Uiso 0.249(8) 1 calc R U P A 2
Cl4 Cl 1.0140(10) 0.6279(5) 0.2309(5) 0.083(3) Uani 0.249(8) 1 d D . P A 2
Cl5 Cl 0.9003(12) 0.4966(5) 0.2023(6) 0.097(4) Uani 0.249(8) 1 d D . P A 2

loop_
_atom_site_aniso_label
_atom_site_aniso_U_11
_atom_site_aniso_U_22
_atom_site_aniso_U_33
_atom_site_aniso_U_23
_atom_site_aniso_U_13
_atom_site_aniso_U_12
Zn01 0.0179(3) 0.0181(3) 0.0233(3) 0.0000(2) -0.0005(2) 0.0014(2)
Cl1 0.0262(5) 0.0243(5) 0.0353(6) 0.0033(4) 0.0061(4) -0.0027(4)
N1 0.0182(17) 0.0182(16) 0.0228(17) 0.0010(14) -0.0015(14) 0.0011(13)
N2 0.0204(17) 0.0184(16) 0.0258(18) -0.0008(14) -0.0007(15) 0.0036(15)
N3 0.0218(18) 0.0192(17) 0.0237(17) 0.0001(14) -0.0001(14) 0.0029(14)
N4 0.0196(17) 0.0184(16) 0.0213(17) 0.0013(14) -0.0026(14) 0.0011(14)
N5 0.022(2) 0.0227(19) 0.034(2) 0.0023(16) 0.0017(16) 0.0044(16)
O1 0.0350(19) 0.0336(18) 0.0282(16) 0.0047(14) -0.0121(15) -0.0018(16)
O2 0.062(3) 0.0173(17) 0.084(3) 0.001(2) -0.014(3) 0.0087(19)
O3 0.049(3) 0.076(3) 0.033(2) -0.020(2) -0.0171(19) 0.026(2)
O4 0.046(2) 0.0241(17) 0.040(2) -0.0011(15) 0.0015(17) -0.0111(16)
C1 0.0186(19) 0.0185(19) 0.023(2) -0.0005(16) 0.0002(16) 0.0012(15)
C2 0.025(2) 0.026(2) 0.024(2) -0.0045(17) -0.0003(17) 0.0043(18)
C3 0.024(2) 0.025(2) 0.023(2) -0.0023(17) -0.0001(17) 0.0012(18)
C4 0.021(2) 0.020(2) 0.0212(19) -0.0009(16) -0.0013(16) 0.0010(17)
C5 0.020(2) 0.0189(19) 0.0220(19) 0.0035(16) 0.0006(16) -0.0019(16)
C6 0.0174(19) 0.022(2) 0.028(2) 0.0027(17) -0.0015(16) 0.0022(16)
C7 0.020(2) 0.026(2) 0.033(2) 0.0007(18) 0.0013(18) 0.0042(18)
C8 0.023(2) 0.025(2) 0.029(2) -0.0010(17) 0.0017(18) 0.0044(18)
C9 0.020(2) 0.020(2) 0.027(2) 0.0009(17) 0.0012(17) 0.0037(16)
C10 0.022(2) 0.019(2) 0.029(2) -0.0004(16) 0.0009(18) 0.0011(17)
C11 0.028(2) 0.0159(19) 0.028(2) -0.0046(16) -0.0005(18) 0.0015(17)
C12 0.038(3) 0.024(2) 0.037(3) -0.008(2) -0.012(2) 0.006(2)
C13 0.033(3) 0.023(2) 0.036(2) -0.0071(19) -0.005(2) 0.0023(19)
C14 0.023(2) 0.020(2) 0.027(2) -0.0041(17) -0.0002(17) 0.0015(17)
C15 0.0165(19) 0.022(2) 0.027(2) 0.0010(17) 0.0019(16) -0.0020(16)
C16 0.019(2) 0.0210(19) 0.021(2) 0.0015(16) -0.0019(16) 0.0004(16)
C17 0.018(2) 0.023(2) 0.024(2) 0.0015(17) -0.0017(16) 0.0001(16)
C18 0.020(2) 0.024(2) 0.024(2) 0.0023(17) -0.0031(16) 0.0046(17)
C19 0.0173(19) 0.0225(19) 0.0204(19) 0.0005(15) -0.0021(16) 0.0024(16)
C20 0.018(2) 0.020(2) 0.0228(19) -0.0006(16) -0.0016(16) 0.0017(16)
C21 0.018(2) 0.022(2) 0.023(2) 0.0029(17) -0.0009(16) 0.0019(16)
C22 0.022(2) 0.021(2) 0.026(2) 0.0045(16) 0.0003(17) 0.0029(17)
C23 0.026(2) 0.023(2) 0.026(2) 0.0001(17) -0.0056(18) -0.0030(18)
C24 0.024(2) 0.027(2) 0.024(2) 0.0018(17) -0.0010(18) 0.0024(18)
C25 0.026(2) 0.024(2) 0.026(2) 0.0071(18) -0.0014(18) 0.0033(18)
C26 0.025(2) 0.023(2) 0.027(2) 0.0026(18) -0.0016(18) 0.0029(19)
C27 0.026(2) 0.019(2) 0.032(2) 0.0007(17) -0.0002(19) 0.0026(17)
C28 0.048(3) 0.024(2) 0.039(3) 0.005(2) 0.005(3) 0.000(2)
C29 0.071(4) 0.021(2) 0.045(3) 0.004(2) 0.002(3) 0.001(3)
C30 0.037(3) 0.018(2) 0.061(3) 0.000(2) -0.009(3) 0.003(2)
C31 0.028(2) 0.026(2) 0.047(3) -0.007(2) 0.000(2) 0.0042(19)
C32 0.028(2) 0.022(2) 0.036(3) -0.0020(19) 0.001(2) 0.0020(18)
C33 0.023(2) 0.020(2) 0.024(2) -0.0021(16) 0.0010(17) 0.0008(17)
C34 0.025(2) 0.027(2) 0.034(2) -0.0067(18) 0.0010(19) 0.0007(18)
C35 0.026(2) 0.042(3) 0.038(3) -0.016(2) -0.007(2) 0.007(2)
C36 0.040(3) 0.033(3) 0.028(2) -0.0082(19) -0.007(2) 0.013(2)
C37 0.040(3) 0.026(2) 0.024(2) -0.0047(17) 0.000(2) 0.005(2)
C38 0.028(2) 0.021(2) 0.028(2) -0.0016(17) 0.0005(18) -0.0001(18)
C39 0.020(2) 0.0203(19) 0.023(2) 0.0003(17) -0.0034(17) 0.0027(16)
C40 0.022(2) 0.023(2) 0.027(2) -0.0025(16) 0.0008(18) 0.0036(17)
C41 0.028(2) 0.025(2) 0.030(2) 0.0002(19) -0.0006(18) -0.0015(18)
C42 0.030(2) 0.023(2) 0.030(2) -0.0021(17) -0.0069(19) -0.001(2)
C43 0.027(2) 0.023(2) 0.030(2) -0.0038(18) -0.0041(19) 0.0027(18)
C44 0.025(2) 0.025(2) 0.028(2) -0.0031(18) -0.0017(18) 0.0044(18)
C45 0.020(2) 0.022(2) 0.025(2) -0.0013(17) -0.0005(17) 0.0010(17)
C46 0.021(2) 0.027(2) 0.032(2) 0.0022(18) -0.0030(18) 0.0061(18)
C47 0.019(2) 0.037(3) 0.032(2) -0.001(2) 0.0007(19) 0.0032(19)
C48 0.025(2) 0.031(2) 0.035(3) 0.003(2) 0.006(2) 0.001(2)
C49 0.037(3) 0.042(3) 0.033(3) 0.007(2) -0.015(2) 0.005(2)
C50 0.042(3) 0.023(3) 0.115(7) -0.017(4) -0.004(4) 0.010(2)
C51 0.043(4) 0.172(12) 0.051(4) -0.047(6) -0.018(3) 0.017(6)
C52 0.074(5) 0.038(3) 0.053(4) -0.013(3) 0.022(4) -0.029(3)
C101 0.079(7) 0.087(7) 0.113(9) 0.011(7) -0.005(7) 0.003(6)
Cl2 0.0618(12) 0.0935(17) 0.0904(16) 0.0096(13) -0.0043(11) 0.0042(12)
Cl3 0.106(2) 0.127(2) 0.0581(12) -0.0067(14) 0.0006(13) -0.0298(19)
C201 0.13(2) 0.27(4) 0.073(12) 0.05(2) -0.015(13) -0.01(2)
C204 0.066(8) 0.073(8) 0.127(12) -0.002(8) -0.052(9) 0.002(7)
C205 0.053(7) 0.103(11) 0.092(10) -0.002(8) 0.004(6) -0.011(7)
C202 0.099(12) 0.111(13) 0.104(12) -0.022(10) -0.023(11) -0.007(11)
C203 0.058(8) 0.142(16) 0.096(11) 0.017(11) -0.016(8) -0.008(9)
C301 0.046(11) 0.067(12) 0.043(10) -0.001(9) 0.019(9) 0.026(10)
Cl4 0.088(7) 0.081(6) 0.081(6) 0.003(5) -0.002(5) 0.016(5)
Cl5 0.107(10) 0.106(9) 0.078(7) -0.027(7) -0.014(6) 0.023(7)

_geom_special_details            
;
 All esds (except the esd in the dihedral angle between two l.s. planes)
 are estimated using the full covariance matrix.  The cell esds are taken
 into account individually in the estimation of esds in distances, angles
 and torsion angles; correlations between esds in cell parameters are only
 used when they are defined by crystal symmetry.  An approximate (isotropic)
 treatment of cell esds is used for estimating esds involving l.s. planes.
;

loop_
_geom_bond_atom_site_label_1
_geom_bond_atom_site_label_2
_geom_bond_distance
_geom_bond_site_symmetry_2
_geom_bond_publ_flag
Zn01 N2 2.079(4) . ?
Zn01 N3 2.103(4) . ?
Zn01 N4 2.125(4) . ?
Zn01 N1 2.130(4) . ?
Zn01 Cl1 2.3233(12) . ?
N1 C1 1.328(6) . ?
N1 C4 1.410(6) . ?
N2 C6 1.362(6) . ?
N2 C9 1.371(6) . ?
N3 C14 1.340(6) . ?
N3 C11 1.385(6) . ?
N4 C19 1.306(6) . ?
N4 C16 1.410(6) . ?
N5 C48 1.372(7) . ?
N5 C45 1.382(6) . ?
N5 H5N 0.84(7) . ?
O1 C24 1.367(6) . ?
O1 C49 1.428(6) . ?
O2 C30 1.376(6) . ?
O2 C50 1.426(11) . ?
O3 C36 1.368(6) . ?
O3 C51 1.428(10) . ?
O4 C42 1.376(6) . ?
O4 C52 1.424(8) . ?
C1 C2 1.438(6) . ?
C1 C20 1.505(6) . ?
C2 C3 1.349(7) . ?
C2 H2 0.9500 . ?
C3 C4 1.456(6) . ?
C3 H3 0.9500 . ?
C4 C5 1.374(6) . ?
C5 C6 1.437(6) . ?
C5 C21 1.493(6) . ?
C6 C7 1.439(6) . ?
C7 C8 1.369(7) . ?
C7 H7 0.9500 . ?
C8 C9 1.415(7) . ?
C8 H8 0.9500 . ?
C9 C10 1.428(6) . ?
C10 C11 1.398(7) . ?
C10 C27 1.477(6) . ?
C11 C12 1.423(7) . ?
C12 C13 1.362(7) . ?
C12 H12 0.9500 . ?
C13 C14 1.432(6) . ?
C13 H13 0.9500 . ?
C14 C15 1.450(6) . ?
C15 C16 1.373(6) . ?
C15 C33 1.496(6) . ?
C16 C17 1.450(6) . ?
C17 C18 1.346(7) . ?
C17 H17 0.9500 . ?
C18 C19 1.458(6) . ?
C18 H18 0.9500 . ?
C19 C20 1.510(6) . ?
C20 C45 1.529(6) . ?
C20 C39 1.542(6) . ?
C21 C26 1.398(6) . ?
C21 C22 1.408(6) . ?
C22 C23 1.374(7) . ?
C22 H22 0.9500 . ?
C23 C24 1.401(7) . ?
C23 H23 0.9500 . ?
C24 C25 1.391(7) . ?
C25 C26 1.379(7) . ?
C25 H25 0.9500 . ?
C26 H26 0.9500 . ?
C27 C28 1.389(7) . ?
C27 C32 1.406(7) . ?
C28 C29 1.390(8) . ?
C28 H28 0.9500 . ?
C29 C30 1.400(10) . ?
C29 H29 0.9500 . ?
C30 C31 1.385(9) . ?
C31 C32 1.381(7) . ?
C31 H31 0.9500 . ?
C32 H32 0.9500 . ?
C33 C34 1.395(7) . ?
C33 C38 1.397(7) . ?
C34 C35 1.391(7) . ?
C34 H34 0.9500 . ?
C35 C36 1.392(8) . ?
C35 H35 0.9500 . ?
C36 C37 1.389(8) . ?
C37 C38 1.382(7) . ?
C37 H37 0.9500 . ?
C38 H38 0.9500 . ?
C39 C40 1.390(7) . ?
C39 C44 1.399(6) . ?
C40 C41 1.400(7) . ?
C40 H40 0.9500 . ?
C41 C42 1.390(7) . ?
C41 H41 0.9500 . ?
C42 C43 1.385(8) . ?
C43 C44 1.375(7) . ?
C43 H43 0.9500 . ?
C44 H44 0.9500 . ?
C45 C46 1.373(6) . ?
C46 C47 1.414(7) . ?
C46 H46 0.9500 . ?
C47 C48 1.379(8) . ?
C47 H47 0.9500 . ?
C48 H48 0.9500 . ?
C49 H49A 0.9800 . ?
C49 H49B 0.9800 . ?
C49 H49C 0.9800 . ?
C50 H50A 0.9800 . ?
C50 H50B 0.9800 . ?
C50 H50C 0.9800 . ?
C51 H51A 0.9800 . ?
C51 H51B 0.9800 . ?
C51 H51C 0.9800 . ?
C52 H52A 0.9800 . ?
C52 H52B 0.9800 . ?
C52 H52C 0.9800 . ?
C101 Cl3 1.7670(14) . ?
C101 Cl2 1.7674(14) . ?
C101 H10A 0.9900 . ?
C101 H10B 0.9900 . ?
C201 C202 1.5399(14) . ?
C201 H20A 0.9800 . ?
C201 H20B 0.9800 . ?
C201 H20C 0.9800 . ?
C204 C205 1.5401(14) . ?
C204 C203 1.5405(14) . ?
C204 H20D 0.9900 . ?
C204 H20E 0.9900 . ?
C205 H20F 0.9800 . ?
C205 H20G 0.9800 . ?
C205 H20H 0.9800 . ?
C202 C203 1.5401(14) . ?
C202 H20I 0.9900 . ?
C202 H20J 0.9900 . ?
C203 H20K 0.9900 . ?
C203 H20L 0.9900 . ?
C301 Cl4 1.7669(14) . ?
C301 Cl5 1.7670(14) . ?
C301 H30A 0.9900 . ?
C301 H30B 0.9900 . ?

loop_
_geom_angle_atom_site_label_1
_geom_angle_atom_site_label_2
_geom_angle_atom_site_label_3
_geom_angle
_geom_angle_site_symmetry_1
_geom_angle_site_symmetry_3
_geom_angle_publ_flag
N2 Zn01 N3 88.28(15) . . ?
N2 Zn01 N4 154.98(15) . . ?
N3 Zn01 N4 86.79(15) . . ?
N2 Zn01 N1 86.88(14) . . ?
N3 Zn01 N1 152.75(15) . . ?
N4 Zn01 N1 86.36(14) . . ?
N2 Zn01 Cl1 105.54(11) . . ?
N3 Zn01 Cl1 107.79(11) . . ?
N4 Zn01 Cl1 99.32(11) . . ?
N1 Zn01 Cl1 99.34(11) . . ?
C1 N1 C4 106.3(4) . . ?
C1 N1 Zn01 124.6(3) . . ?
C4 N1 Zn01 123.3(3) . . ?
C6 N2 C9 105.9(4) . . ?
C6 N2 Zn01 128.8(3) . . ?
C9 N2 Zn01 125.3(3) . . ?
C14 N3 C11 105.9(4) . . ?
C14 N3 Zn01 126.2(3) . . ?
C11 N3 Zn01 122.1(3) . . ?
C19 N4 C16 105.8(4) . . ?
C19 N4 Zn01 128.0(3) . . ?
C16 N4 Zn01 125.9(3) . . ?
C48 N5 C45 108.8(4) . . ?
C48 N5 H5N 135(5) . . ?
C45 N5 H5N 116(5) . . ?
C24 O1 C49 117.3(4) . . ?
C30 O2 C50 117.2(6) . . ?
C36 O3 C51 116.8(6) . . ?
C42 O4 C52 116.0(5) . . ?
N1 C1 C2 111.6(4) . . ?
N1 C1 C20 127.3(4) . . ?
C2 C1 C20 121.0(4) . . ?
C3 C2 C1 107.0(4) . . ?
C3 C2 H2 126.5 . . ?
C1 C2 H2 126.5 . . ?
C2 C3 C4 106.9(4) . . ?
C2 C3 H3 126.6 . . ?
C4 C3 H3 126.6 . . ?
C5 C4 N1 125.3(4) . . ?
C5 C4 C3 126.5(4) . . ?
N1 C4 C3 108.2(4) . . ?
C4 C5 C6 125.1(4) . . ?
C4 C5 C21 118.1(4) . . ?
C6 C5 C21 116.9(4) . . ?
N2 C6 C5 124.5(4) . . ?
N2 C6 C7 110.3(4) . . ?
C5 C6 C7 125.0(4) . . ?
C8 C7 C6 106.1(4) . . ?
C8 C7 H7 126.9 . . ?
C6 C7 H7 126.9 . . ?
C7 C8 C9 106.9(4) . . ?
C7 C8 H8 126.6 . . ?
C9 C8 H8 126.6 . . ?
N2 C9 C8 110.8(4) . . ?
N2 C9 C10 125.1(4) . . ?
C8 C9 C10 124.1(4) . . ?
C11 C10 C9 125.2(4) . . ?
C11 C10 C27 118.6(4) . . ?
C9 C10 C27 116.2(4) . . ?
N3 C11 C10 125.0(4) . . ?
N3 C11 C12 109.4(4) . . ?
C10 C11 C12 125.6(4) . . ?
C13 C12 C11 107.4(4) . . ?
C13 C12 H12 126.3 . . ?
C11 C12 H12 126.3 . . ?
C12 C13 C14 105.7(5) . . ?
C12 C13 H13 127.2 . . ?
C14 C13 H13 127.2 . . ?
N3 C14 C13 111.5(4) . . ?
N3 C14 C15 125.4(4) . . ?
C13 C14 C15 123.1(4) . . ?
C16 C15 C14 125.3(4) . . ?
C16 C15 C33 117.4(4) . . ?
C14 C15 C33 117.3(4) . . ?
C15 C16 N4 125.4(4) . . ?
C15 C16 C17 125.4(4) . . ?
N4 C16 C17 109.1(4) . . ?
C18 C17 C16 106.6(4) . . ?
C18 C17 H17 126.7 . . ?
C16 C17 H17 126.7 . . ?
C17 C18 C19 106.2(4) . . ?
C17 C18 H18 126.9 . . ?
C19 C18 H18 126.9 . . ?
N4 C19 C18 112.3(4) . . ?
N4 C19 C20 127.8(4) . . ?
C18 C19 C20 119.7(4) . . ?
C1 C20 C19 118.0(4) . . ?
C1 C20 C45 107.9(4) . . ?
C19 C20 C45 103.0(4) . . ?
C1 C20 C39 105.0(3) . . ?
C19 C20 C39 108.0(4) . . ?
C45 C20 C39 115.3(4) . . ?
C26 C21 C22 117.2(4) . . ?
C26 C21 C5 120.9(4) . . ?
C22 C21 C5 121.9(4) . . ?
C23 C22 C21 121.2(4) . . ?
C23 C22 H22 119.4 . . ?
C21 C22 H22 119.4 . . ?
C22 C23 C24 120.4(4) . . ?
C22 C23 H23 119.8 . . ?
C24 C23 H23 119.8 . . ?
O1 C24 C25 124.5(4) . . ?
O1 C24 C23 116.2(4) . . ?
C25 C24 C23 119.3(4) . . ?
C26 C25 C24 119.7(4) . . ?
C26 C25 H25 120.1 . . ?
C24 C25 H25 120.1 . . ?
C25 C26 C21 122.2(5) . . ?
C25 C26 H26 118.9 . . ?
C21 C26 H26 118.9 . . ?
C28 C27 C32 118.0(5) . . ?
C28 C27 C10 118.8(5) . . ?
C32 C27 C10 123.2(4) . . ?
C27 C28 C29 121.6(6) . . ?
C27 C28 H28 119.2 . . ?
C29 C28 H28 119.2 . . ?
C28 C29 C30 118.9(6) . . ?
C28 C29 H29 120.5 . . ?
C30 C29 H29 120.5 . . ?
O2 C30 C31 125.1(6) . . ?
O2 C30 C29 114.5(6) . . ?
C31 C30 C29 120.4(5) . . ?
C32 C31 C30 119.8(5) . . ?
C32 C31 H31 120.1 . . ?
C30 C31 H31 120.1 . . ?
C31 C32 C27 121.1(5) . . ?
C31 C32 H32 119.4 . . ?
C27 C32 H32 119.4 . . ?
C34 C33 C38 118.0(4) . . ?
C34 C33 C15 120.8(4) . . ?
C38 C33 C15 121.1(4) . . ?
C35 C34 C33 121.3(5) . . ?
C35 C34 H34 119.3 . . ?
C33 C34 H34 119.3 . . ?
C34 C35 C36 119.8(5) . . ?
C34 C35 H35 120.1 . . ?
C36 C35 H35 120.1 . . ?
O3 C36 C37 115.1(5) . . ?
O3 C36 C35 125.7(5) . . ?
C37 C36 C35 119.2(5) . . ?
C38 C37 C36 120.8(5) . . ?
C38 C37 H37 119.6 . . ?
C36 C37 H37 119.6 . . ?
C37 C38 C33 120.8(5) . . ?
C37 C38 H38 119.6 . . ?
C33 C38 H38 119.6 . . ?
C40 C39 C44 118.2(4) . . ?
C40 C39 C20 118.0(4) . . ?
C44 C39 C20 123.6(4) . . ?
C39 C40 C41 121.8(4) . . ?
C39 C40 H40 119.1 . . ?
C41 C40 H40 119.1 . . ?
C42 C41 C40 118.3(5) . . ?
C42 C41 H41 120.8 . . ?
C40 C41 H41 120.8 . . ?
O4 C42 C43 116.1(4) . . ?
O4 C42 C41 123.4(5) . . ?
C43 C42 C41 120.5(5) . . ?
C44 C43 C42 120.4(5) . . ?
C44 C43 H43 119.8 . . ?
C42 C43 H43 119.8 . . ?
C43 C44 C39 120.7(5) . . ?
C43 C44 H44 119.6 . . ?
C39 C44 H44 119.6 . . ?
C46 C45 N5 108.2(4) . . ?
C46 C45 C20 133.6(4) . . ?
N5 C45 C20 117.9(4) . . ?
C45 C46 C47 107.4(4) . . ?
C45 C46 H46 126.3 . . ?
C47 C46 H46 126.3 . . ?
C48 C47 C46 107.5(4) . . ?
C48 C47 H47 126.2 . . ?
C46 C47 H47 126.2 . . ?
N5 C48 C47 108.1(5) . . ?
N5 C48 H48 126.0 . . ?
C47 C48 H48 126.0 . . ?
O1 C49 H49A 109.5 . . ?
O1 C49 H49B 109.5 . . ?
H49A C49 H49B 109.5 . . ?
O1 C49 H49C 109.5 . . ?
H49A C49 H49C 109.5 . . ?
H49B C49 H49C 109.5 . . ?
O2 C50 H50A 109.5 . . ?
O2 C50 H50B 109.5 . . ?
H50A C50 H50B 109.5 . . ?
O2 C50 H50C 109.5 . . ?
H50A C50 H50C 109.5 . . ?
H50B C50 H50C 109.5 . . ?
O3 C51 H51A 109.5 . . ?
O3 C51 H51B 109.5 . . ?
H51A C51 H51B 109.5 . . ?
O3 C51 H51C 109.5 . . ?
H51A C51 H51C 109.5 . . ?
H51B C51 H51C 109.5 . . ?
O4 C52 H52A 109.5 . . ?
O4 C52 H52B 109.5 . . ?
H52A C52 H52B 109.5 . . ?
O4 C52 H52C 109.5 . . ?
H52A C52 H52C 109.5 . . ?
H52B C52 H52C 109.5 . . ?
Cl3 C101 Cl2 111.15(12) . . ?
Cl3 C101 H10A 109.4 . . ?
Cl2 C101 H10A 109.4 . . ?
Cl3 C101 H10B 109.4 . . ?
Cl2 C101 H10B 109.4 . . ?
H10A C101 H10B 108.0 . . ?
C202 C201 H20A 109.5 . . ?
C202 C201 H20B 109.5 . . ?
H20A C201 H20B 109.5 . . ?
C202 C201 H20C 109.5 . . ?
H20A C201 H20C 109.5 . . ?
H20B C201 H20C 109.5 . . ?
C205 C204 C203 107.98(14) . . ?
C205 C204 H20D 110.1 . . ?
C203 C204 H20D 110.1 . . ?
C205 C204 H20E 110.1 . . ?
C203 C204 H20E 110.1 . . ?
H20D C204 H20E 108.4 . . ?
C204 C205 H20F 109.5 . . ?
C204 C205 H20G 109.5 . . ?
H20F C205 H20G 109.5 . . ?
C204 C205 H20H 109.5 . . ?
H20F C205 H20H 109.5 . . ?
H20G C205 H20H 109.5 . . ?
C201 C202 C203 108.03(14) . . ?
C201 C202 H20I 110.1 . . ?
C203 C202 H20I 110.1 . . ?
C201 C202 H20J 110.1 . . ?
C203 C202 H20J 110.1 . . ?
H20I C202 H20J 108.4 . . ?
C202 C203 C204 108.00(14) . . ?
C202 C203 H20K 110.1 . . ?
C204 C203 H20K 110.1 . . ?
C202 C203 H20L 110.1 . . ?
C204 C203 H20L 110.1 . . ?
H20K C203 H20L 108.4 . . ?
Cl4 C301 Cl5 111.26(13) . . ?
Cl4 C301 H30A 109.4 . . ?
Cl5 C301 H30A 109.4 . . ?
Cl4 C301 H30B 109.4 . . ?
Cl5 C301 H30B 109.4 . . ?
H30A C301 H30B 108.0 . . ?

loop_
_geom_torsion_atom_site_label_1
_geom_torsion_atom_site_label_2
_geom_torsion_atom_site_label_3
_geom_torsion_atom_site_label_4
_geom_torsion
_geom_torsion_site_symmetry_1
_geom_torsion_site_symmetry_2
_geom_torsion_site_symmetry_3
_geom_torsion_site_symmetry_4
_geom_torsion_publ_flag
C4 N1 C1 C2 -1.3(5) . . . . ?
Zn01 N1 C1 C2 152.4(3) . . . . ?
C4 N1 C1 C20 176.3(4) . . . . ?
Zn01 N1 C1 C20 -30.1(6) . . . . ?
N1 C1 C2 C3 0.8(6) . . . . ?
C20 C1 C2 C3 -177.0(4) . . . . ?
C1 C2 C3 C4 0.1(5) . . . . ?
C1 N1 C4 C5 -176.9(4) . . . . ?
Zn01 N1 C4 C5 29.0(6) . . . . ?
C1 N1 C4 C3 1.3(5) . . . . ?
Zn01 N1 C4 C3 -152.8(3) . . . . ?
C2 C3 C4 C5 177.4(5) . . . . ?
C2 C3 C4 N1 -0.8(5) . . . . ?
N1 C4 C5 C6 -8.3(7) . . . . ?
C3 C4 C5 C6 173.7(5) . . . . ?
N1 C4 C5 C21 170.6(4) . . . . ?
C3 C4 C5 C21 -7.4(7) . . . . ?
C9 N2 C6 C5 -173.5(4) . . . . ?
Zn01 N2 C6 C5 6.6(7) . . . . ?
C9 N2 C6 C7 2.2(5) . . . . ?
Zn01 N2 C6 C7 -177.6(3) . . . . ?
C4 C5 C6 N2 -11.2(7) . . . . ?
C21 C5 C6 N2 169.9(4) . . . . ?
C4 C5 C6 C7 173.7(5) . . . . ?
C21 C5 C6 C7 -5.2(7) . . . . ?
N2 C6 C7 C8 -2.6(5) . . . . ?
C5 C6 C7 C8 173.2(4) . . . . ?
C6 C7 C8 C9 1.8(5) . . . . ?
C6 N2 C9 C8 -1.1(5) . . . . ?
Zn01 N2 C9 C8 178.7(3) . . . . ?
C6 N2 C9 C10 -180.0(4) . . . . ?
Zn01 N2 C9 C10 -0.1(7) . . . . ?
C7 C8 C9 N2 -0.5(5) . . . . ?
C7 C8 C9 C10 178.4(5) . . . . ?
N2 C9 C10 C11 15.6(8) . . . . ?
C8 C9 C10 C11 -163.1(5) . . . . ?
N2 C9 C10 C27 -163.1(4) . . . . ?
C8 C9 C10 C27 18.2(7) . . . . ?
C14 N3 C11 C10 177.1(5) . . . . ?
Zn01 N3 C11 C10 -28.2(6) . . . . ?
C14 N3 C11 C12 -0.6(6) . . . . ?
Zn01 N3 C11 C12 154.1(4) . . . . ?
C9 C10 C11 N3 0.3(8) . . . . ?
C27 C10 C11 N3 179.0(5) . . . . ?
C9 C10 C11 C12 177.6(5) . . . . ?
C27 C10 C11 C12 -3.7(8) . . . . ?
N3 C11 C12 C13 1.8(6) . . . . ?
C10 C11 C12 C13 -175.9(5) . . . . ?
C11 C12 C13 C14 -2.1(6) . . . . ?
C11 N3 C14 C13 -0.8(6) . . . . ?
Zn01 N3 C14 C13 -154.1(4) . . . . ?
C11 N3 C14 C15 177.7(4) . . . . ?
Zn01 N3 C14 C15 24.4(7) . . . . ?
C12 C13 C14 N3 1.9(6) . . . . ?
C12 C13 C14 C15 -176.7(5) . . . . ?
N3 C14 C15 C16 -8.4(8) . . . . ?
C13 C14 C15 C16 169.9(5) . . . . ?
N3 C14 C15 C33 169.8(4) . . . . ?
C13 C14 C15 C33 -11.9(7) . . . . ?
C14 C15 C16 N4 0.4(7) . . . . ?
C33 C15 C16 N4 -177.8(4) . . . . ?
C14 C15 C16 C17 176.5(4) . . . . ?
C33 C15 C16 C17 -1.7(7) . . . . ?
C19 N4 C16 C15 176.6(4) . . . . ?
Zn01 N4 C16 C15 -9.2(6) . . . . ?
C19 N4 C16 C17 0.0(5) . . . . ?
Zn01 N4 C16 C17 174.1(3) . . . . ?
C15 C16 C17 C18 -176.5(4) . . . . ?
N4 C16 C17 C18 0.1(5) . . . . ?
C16 C17 C18 C19 -0.2(5) . . . . ?
C16 N4 C19 C18 -0.1(5) . . . . ?
Zn01 N4 C19 C18 -174.1(3) . . . . ?
C16 N4 C19 C20 174.8(4) . . . . ?
Zn01 N4 C19 C20 0.8(7) . . . . ?
C17 C18 C19 N4 0.2(6) . . . . ?
C17 C18 C19 C20 -175.1(4) . . . . ?
N1 C1 C20 C19 5.0(7) . . . . ?
C2 C1 C20 C19 -177.6(4) . . . . ?
N1 C1 C20 C45 121.1(5) . . . . ?
C2 C1 C20 C45 -61.5(5) . . . . ?
N1 C1 C20 C39 -115.4(5) . . . . ?
C2 C1 C20 C39 62.0(5) . . . . ?
N4 C19 C20 C1 11.1(7) . . . . ?
C18 C19 C20 C1 -174.3(4) . . . . ?
N4 C19 C20 C45 -107.6(5) . . . . ?
C18 C19 C20 C45 67.0(5) . . . . ?
N4 C19 C20 C39 129.9(5) . . . . ?
C18 C19 C20 C39 -55.5(5) . . . . ?
C4 C5 C21 C26 132.4(5) . . . . ?
C6 C5 C21 C26 -48.6(6) . . . . ?
C4 C5 C21 C22 -49.4(6) . . . . ?
C6 C5 C21 C22 129.6(5) . . . . ?
C26 C21 C22 C23 1.2(7) . . . . ?
C5 C21 C22 C23 -177.0(5) . . . . ?
C21 C22 C23 C24 -0.1(8) . . . . ?
C49 O1 C24 C25 -2.3(7) . . . . ?
C49 O1 C24 C23 178.7(5) . . . . ?
C22 C23 C24 O1 178.7(5) . . . . ?
C22 C23 C24 C25 -0.4(7) . . . . ?
O1 C24 C25 C26 -179.4(5) . . . . ?
C23 C24 C25 C26 -0.4(7) . . . . ?
C24 C25 C26 C21 1.7(7) . . . . ?
C22 C21 C26 C25 -2.0(7) . . . . ?
C5 C21 C26 C25 176.3(4) . . . . ?
C11 C10 C27 C28 -121.0(6) . . . . ?
C9 C10 C27 C28 57.8(7) . . . . ?
C11 C10 C27 C32 56.0(7) . . . . ?
C9 C10 C27 C32 -125.2(5) . . . . ?
C32 C27 C28 C29 -4.0(9) . . . . ?
C10 C27 C28 C29 173.1(6) . . . . ?
C27 C28 C29 C30 4.1(11) . . . . ?
C50 O2 C30 C31 -4.1(9) . . . . ?
C50 O2 C30 C29 175.6(6) . . . . ?
C28 C29 C30 O2 179.0(6) . . . . ?
C28 C29 C30 C31 -1.3(10) . . . . ?
O2 C30 C31 C32 178.2(6) . . . . ?
C29 C30 C31 C32 -1.5(9) . . . . ?
C30 C31 C32 C27 1.7(8) . . . . ?
C28 C27 C32 C31 1.1(8) . . . . ?
C10 C27 C32 C31 -175.9(5) . . . . ?
C16 C15 C33 C34 -65.3(6) . . . . ?
C14 C15 C33 C34 116.4(5) . . . . ?
C16 C15 C33 C38 111.9(5) . . . . ?
C14 C15 C33 C38 -66.4(6) . . . . ?
C38 C33 C34 C35 1.2(7) . . . . ?
C15 C33 C34 C35 178.5(5) . . . . ?
C33 C34 C35 C36 -1.2(8) . . . . ?
C51 O3 C36 C37 175.9(7) . . . . ?
C51 O3 C36 C35 -5.3(10) . . . . ?
C34 C35 C36 O3 -178.8(5) . . . . ?
C34 C35 C36 C37 -0.1(8) . . . . ?
O3 C36 C37 C38 -179.7(5) . . . . ?
C35 C36 C37 C38 1.4(8) . . . . ?
C36 C37 C38 C33 -1.4(7) . . . . ?
C34 C33 C38 C37 0.1(7) . . . . ?
C15 C33 C38 C37 -177.2(4) . . . . ?
C1 C20 C39 C40 83.9(5) . . . . ?
C19 C20 C39 C40 -42.9(5) . . . . ?
C45 C20 C39 C40 -157.5(4) . . . . ?
C1 C20 C39 C44 -91.0(5) . . . . ?
C19 C20 C39 C44 142.2(4) . . . . ?
C45 C20 C39 C44 27.6(6) . . . . ?
C44 C39 C40 C41 0.8(7) . . . . ?
C20 C39 C40 C41 -174.4(4) . . . . ?
C39 C40 C41 C42 0.2(7) . . . . ?
C52 O4 C42 C43 167.8(5) . . . . ?
C52 O4 C42 C41 -12.1(8) . . . . ?
C40 C41 C42 O4 178.3(5) . . . . ?
C40 C41 C42 C43 -1.6(7) . . . . ?
O4 C42 C43 C44 -177.9(5) . . . . ?
C41 C42 C43 C44 2.0(8) . . . . ?
C42 C43 C44 C39 -1.1(8) . . . . ?
C40 C39 C44 C43 -0.4(7) . . . . ?
C20 C39 C44 C43 174.5(4) . . . . ?
C48 N5 C45 C46 -0.1(6) . . . . ?
C48 N5 C45 C20 -174.6(4) . . . . ?
C1 C20 C45 C46 140.7(5) . . . . ?
C19 C20 C45 C46 -93.7(6) . . . . ?
C39 C20 C45 C46 23.7(7) . . . . ?
C1 C20 C45 N5 -46.5(5) . . . . ?
C19 C20 C45 N5 79.0(5) . . . . ?
C39 C20 C45 N5 -163.6(4) . . . . ?
N5 C45 C46 C47 0.2(6) . . . . ?
C20 C45 C46 C47 173.5(5) . . . . ?
C45 C46 C47 C48 -0.3(6) . . . . ?
C45 N5 C48 C47 -0.1(6) . . . . ?
C46 C47 C48 N5 0.2(6) . . . . ?
C201 C202 C203 C204 -174.9(14) . . . . ?
C205 C204 C203 C202 179.8(12) . . . . ?

loop_
_geom_hbond_atom_site_label_D
_geom_hbond_atom_site_label_H
_geom_hbond_atom_site_label_A
_geom_hbond_distance_DH
_geom_hbond_distance_HA
_geom_hbond_distance_DA
_geom_hbond_angle_DHA
_geom_hbond_site_symmetry_A
C3 H3 Cl3 0.95 2.74 3.546(5) 142.8 2_564
C29 H29 O1 0.95 2.46 3.366(8) 159.6 4_645
C52 H52B O2 0.98 2.55 3.495(8) 161.0 1_565
C301 H30B Cl1 0.99 2.82 3.78(3) 161.2 4_655

_refine_diff_density_max         1.320
_refine_diff_density_min         -1.695
_refine_diff_density_rms         0.131